
Gurobi 6.5.2 (linux64) logging started Tue Sep 20 21:16:20 2016


Gurobi 6.5.2 (linux64) logging started Tue Sep 20 21:16:20 2016

Optimize a model with 41 rows, 153 columns and 343 nonzeros
Coefficient statistics:
  Matrix range    [1e+00, 2e+00]
  Objective range [5e+00, 1e+02]
  Bounds range    [1e+00, 1e+00]
  RHS range       [1e+00, 1e+00]
Found heuristic solution: objective 1445
Presolve removed 14 rows and 4 columns
Presolve time: 0.00s
Presolved: 27 rows, 149 columns, 303 nonzeros
Variable types: 0 continuous, 149 integer (149 binary)

Root relaxation: objective 4.630000e+02, 31 iterations, 0.00 seconds

    Nodes    |    Current Node    |     Objective Bounds      |     Work
 Expl Unexpl |  Obj  Depth IntInf | Incumbent    BestBd   Gap | It/Node Time

     0     0  463.00000    0   10 1445.00000  463.00000  68.0%     -    0s
     0     0  463.50000    0   17 1445.00000  463.50000  67.9%     -    0s
     0     0  468.00000    0    8 1445.00000  468.00000  67.6%     -    0s
     0     0  468.14286    0   13 1445.00000  468.14286  67.6%     -    0s
     0     0  468.20000    0   13 1445.00000  468.20000  67.6%     -    0s
H    0     0                     492.0000000  468.20000  4.84%     -    0s
     0     0  468.20000    0    4  492.00000  468.20000  4.84%     -    0s
     0     0  471.45455    0   19  492.00000  471.45455  4.18%     -    0s
     0     2  471.45455    0   19  492.00000  471.45455  4.18%     -    0s
*    6     5               1     473.0000000  473.00000  0.00%   2.5    0s

Cutting planes:
  Gomory: 1
  Zero half: 1
  Lazy constraints: 5

Explored 7 nodes (108 simplex iterations) in 0.02 seconds
Thread count was 8 (of 8 available processors)

Optimal solution found (tolerance 1.00e-04)
Best objective 4.730000000000e+02, best bound 4.730000000000e+02, gap 0.0%
